2460, 0, 0, 71, 2
2461, 0, 1, 63, 1
2462, 0, 2, 34, 0
2463, 0, 3, 46, 3
2464, 1, 0, 88, 0
2465, 1, 1, 68, 1
2466, 1, 2, 76, 3
2467, 1, 3, 69, 2
2468, 2, 0, 98, 0
2469, 2, 1, 95, 3
2470, 2, 2, 54, 2
2471, 2, 3, 87, 1
2472, 3, 0, 48, 3
2473, 3, 1, 98, 0
2474, 3, 2, 51, 2
2475, 3, 3, 95, 1
